words_hard_train/7795.qaiger
aag 47 24 0 1 23
2
4
8
10
14
18
20
24
32
34
38
42
44
48
54
56
60
64
66
70
80
82
86
90
95
6 3 5
12 9 11
16 13 14
22 19 21
26 23 24
28 17 27
30 7 28
36 33 35
40 37 38
46 43 45
50 47 48
52 41 51
58 55 57
62 59 60
68 65 67
72 69 70
74 63 73
76 52 74
78 30 76
84 81 83
88 85 86
92 89 90
94 78 92
i0 2 y1[2]
i1 1 x2[2]
i2 2 y1[3]
i3 1 x2[3]
i4 1 x1[3]
i5 2 y1[4]
i6 1 x2[4]
i7 1 x1[4]
i8 2 y1[7]
i9 1 x2[7]
i10 1 x1[7]
i11 2 y1[0]
i12 1 x2[0]
i13 1 x1[0]
i14 2 y1[5]
i15 1 x2[5]
i16 1 x1[5]
i17 2 y1[6]
i18 1 x2[6]
i19 1 x1[6]
i20 2 y1[1]
i21 1 x2[1]
i22 1 x1[1]
i23 1 x1[2]
o0 bool[0]
c
simplified
  !=
    << 2
      1
    and
      1 x1
      or
        1 x2
        2 y1
