words_hard_train/7795.qaiger.qdimacs
p cnf 47 70
a 33 2 35 5 7 41 10 43 12 45 17 19 22 24 28 30 0
e 1 3 4 6 8 9 11 13 14 15 16 18 20 21 23 25 26 27 29 31 32 34 36 37 38 39 40 42 44 46 47 0
1 2 3 0
-1 -3 0
-2 -3 0
4 5 6 0
-4 -6 0
-5 -6 0
6 -7 8 0
-6 -8 0
7 -8 0
9 10 11 0
-9 -11 0
-10 -11 0
11 -12 13 0
-11 -13 0
12 -13 0
8 13 14 0
-8 -14 0
-13 -14 0
3 -14 15 0
-3 -15 0
14 -15 0
16 17 18 0
-16 -18 0
-17 -18 0
18 -19 20 0
-18 -20 0
19 -20 0
21 22 23 0
-21 -23 0
-22 -23 0
23 -24 25 0
-23 -25 0
24 -25 0
20 25 26 0
-20 -26 0
-25 -26 0
27 28 29 0
-27 -29 0
-28 -29 0
29 -30 31 0
-29 -31 0
30 -31 0
32 33 34 0
-32 -34 0
-33 -34 0
34 -35 36 0
-34 -36 0
35 -36 0
31 36 37 0
-31 -37 0
-36 -37 0
-26 -37 38 0
26 -38 0
37 -38 0
-15 -38 39 0
15 -39 0
38 -39 0
40 41 42 0
-40 -42 0
-41 -42 0
42 -43 44 0
-42 -44 0
43 -44 0
44 -45 46 0
-44 -46 0
45 -46 0
-39 -46 47 0
39 -47 0
46 -47 0
-47 0
